c read Graph
c width = 25
c time = 510 ms
c width = 3
c time = 737 ms
c width = 3
c time = 3904 ms
s td 42 4 45
b 1 1 2 16
b 2 2 3 16 17
b 3 13 14 29 30
b 4 3 16 17 32
b 5 3 17 18 32
b 6 13 29 30 44
b 7 3 18 32 33
b 8 3 18 33 34
b 9 13 29 43 44
b 10 3 4 18 34
b 11 4 18 19 34
b 12 4 19 20 34
b 13 13 28 29 43
b 14 4 20 34 35
b 15 4 20 35 36
b 16 13 28 42 43
b 17 4 5 20 36
b 18 5 20 21 36
b 19 5 6 21 36
b 20 13 27 28 42
b 21 12 13 27 42
b 22 6 7 21 36
b 23 7 21 22 36
b 24 7 22 36 37
b 25 7 8 22 37
b 26 8 22 23 37
b 27 8 23 37 38
b 28 8 9 23 38
b 29 9 23 24 38
b 30 9 24 38 39
b 31 9 10 24 39
b 32 10 24 25 39
b 33 10 25 39 40
b 34 10 11 25 40
b 35 11 25 26 40
b 36 11 26 40 41
b 37 11 12 26 41
b 38 12 26 27 41
b 39 12 27 41 42
b 40 30 44 45
b 41 16 31 32
b 42 14 15 30
1 2
2 4
3 42
3 6
4 41
4 5
5 7
6 40
6 9
7 8
8 10
9 13
10 11
11 12
12 14
13 16
14 15
15 17
16 20
17 18
18 19
19 22
20 21
21 39
22 23
23 24
24 25
25 26
26 27
27 28
28 29
29 30
30 31
31 32
32 33
33 34
34 35
35 36
36 37
37 38
38 39
